db/data/26572973673541387516842685518198813.z3.out
unsat
-------------------
1464.324828966
